Route #1: 1 3 49 23 41 61 47 29 27 28 1 
Route #2: 1 63 16 51 40 32 39 35 1 
Route #3: 1 1 42 62 4 8 11 1 
Route #4: 1 22 2 6 12 38 31 55 1 
Route #5: 1 30 21 48 15 19 34 26 1 
Route #6: 1 33 46 59 54 57 45 1 
Route #7: 1 43 24 18 10 58 17 1 
Route #8: 1 44 50 25 9 53 7 1 
Route #9: 1 56 64 36 20 37 5 1 
Route #10: 1 52 14 13 60 1 

Cost 1414.55
Time 0.9262


 * Another infos *

 Iterations: 65 Time: 0.9262 sec - 0.0154 min - 0.0003 horas
0.0000 h 0.0154 min
Problem dimension: 65
